networks/zoo_66_846/zoo_66_846-lower.txt
Number of groups: 33
Flow 1: {1 2 0} {2 35 0} 
Flow 2: {1 25 0} {25 4 0} {4 37 0} 
Flow 3: {25 22 0} {22 21 0} {21 6 0} {6 39 0} 
Flow 4: {1 7 0} {7 40 0} 
Flow 5: {7 8 0} {8 41 0} 
Flow 6: {21 9 0} {9 42 0} 
Flow 7: {22 14 0} {14 11 0} {11 44 0} 
Flow 8: {22 12 0} {12 45 0} 
Flow 9: {22 13 0} {13 46 0} 
Flow 10: {14 47 0} 
Flow 11: {14 15 0} {15 48 0} 
Flow 12: {8 17 0} {17 16 0} {16 49 0} 
Flow 13: {17 50 0} 
Flow 14: {17 18 0} {18 51 0} 
Flow 15: {21 19 0} {19 52 0} 
Flow 16: {21 54 0} 
Flow 17: {22 55 0} 
Flow 18: {17 23 0} {23 56 0} 
Flow 19: {25 24 0} {24 57 0} 
Flow 20: {25 58 0} 
Flow 21: {9 26 0} {26 59 0} 
Flow 22: {22 28 0} {28 61 0} 
Flow 23: {22 29 0} {29 62 0} 
Flow 24: {22 30 0} {30 63 0} 
Flow 25: {22 31 0} {31 64 0} 
Flow 26: {31 32 0} {32 65 0} 
Flow 27: {24 33 0} {33 66 0} 
Flow 28: {2 1 0} {1 34 0} 
Flow 29: {25 3 0} {3 36 0} 
Flow 31: {2 7 0} {8 21 0} Flow 35: {21 11 0} Flow 56: {3 25 0} {25 1 0} Flow 59: {4 5 0} {5 38 0} 
Flow 60: {3 22 0} Flow 62: {21 8 0} Flow 64: {21 10 0} {10 43 0} 
Flow 72: {19 18 0} Flow 74: {22 20 0} {20 53 0} 
Flow 87: {4 25 0} Flow 91: {5 21 0} Flow 118: {5 4 0} Flow 124: {11 14 0} Flow 128: {21 22 0} Flow 133: {6 21 0} {8 7 0} {7 1 0} Flow 134: {7 2 0} Flow 135: {21 5 0} Flow 140: {22 25 0} Flow 160: {21 20 0} Flow 175: {22 3 0} Flow 204: {9 21 0} Flow 209: {9 6 0} Flow 229: {26 27 0} {27 28 0} Flow 235: {10 21 0} Flow 252: {11 21 0} Flow 279: {12 22 0} Flow 305: {13 22 0} Flow 324: {14 22 0} Flow 349: {15 14 0} Flow 375: {16 17 0} {17 8 0} Flow 385: {18 19 0} Flow 418: {27 60 0} 
Flow 425: {18 17 0} Flow 427: {19 21 0} Flow 475: {20 22 0} Flow 476: {20 21 0} Flow 563: {28 27 0} Flow 570: {23 17 0} Flow 598: {24 25 0} Flow 623: {33 32 0} Flow 657: {26 9 0} Flow 684: {28 22 0} Flow 688: {27 26 0} Flow 747: {29 22 0} Flow 760: {30 22 0} Flow 784: {30 29 0} Flow 788: {31 22 0} Flow 800: {32 33 0} Flow 801: {32 31 0} Flow 812: {33 24 0} Time taken running everything: 1 seconds
