networks/zoo_66_846/zoo_66_846-lower.sol
<?xml version = "1.0" encoding="UTF-8" standalone="yes"?>
<CPLEXSolution version="1.2">
 <header
   problemName="networks/zoo_66_846/zoo_66_846-lower.lp"
   solutionName="incumbent"
   solutionIndex="-1"
   objectiveValue="33"
   solutionTypeValue="3"
   solutionTypeString="primal"
   solutionStatusValue="101"
   solutionStatusString="integer optimal solution"
   solutionMethodString="mip"
   primalFeasible="1"
   dualFeasible="1"
   MIPNodes="0"
   MIPIterations="0"
   writeLevel="3"/>
 <quality
   epInt="1.0000000000000001e-05"
   epRHS="9.9999999999999995e-07"
   maxIntInfeas="0"
   maxPrimalInfeas="0"
   maxX="1"
   maxSlack="1"/>
 <variables>
  <variable name="Y(1,2)" index="1" value="1"/>
  <variable name="Y(2,4)" index="69" value="1"/>
  <variable name="Y(3,6)" index="137" value="1"/>
  <variable name="Y(4,7)" index="204" value="1"/>
  <variable name="Y(5,8)" index="271" value="1"/>
  <variable name="Y(6,9)" index="338" value="1"/>
  <variable name="Y(7,11)" index="406" value="1"/>
  <variable name="Y(8,12)" index="473" value="1"/>
  <variable name="Y(9,13)" index="540" value="1"/>
  <variable name="Y(10,14)" index="607" value="1"/>
  <variable name="Y(11,15)" index="674" value="1"/>
  <variable name="Y(12,16)" index="741" value="1"/>
  <variable name="Y(13,17)" index="808" value="1"/>
  <variable name="Y(14,18)" index="875" value="1"/>
  <variable name="Y(15,19)" index="942" value="1"/>
  <variable name="Y(16,21)" index="1010" value="1"/>
  <variable name="Y(17,22)" index="1077" value="1"/>
  <variable name="Y(18,23)" index="1144" value="1"/>
  <variable name="Y(19,24)" index="1211" value="1"/>
  <variable name="Y(20,25)" index="1278" value="1"/>
  <variable name="Y(21,26)" index="1345" value="1"/>
  <variable name="Y(22,28)" index="1413" value="1"/>
  <variable name="Y(23,29)" index="1480" value="1"/>
  <variable name="Y(24,30)" index="1547" value="1"/>
  <variable name="Y(25,31)" index="1614" value="1"/>
  <variable name="Y(26,32)" index="1681" value="1"/>
  <variable name="Y(27,33)" index="1748" value="1"/>
  <variable name="Y(28,1)" index="1782" value="1"/>
  <variable name="Y(29,3)" index="1850" value="1"/>
  <variable name="Y(59,5)" index="3832" value="1"/>
  <variable name="Y(64,10)" index="4167" value="1"/>
  <variable name="Y(74,20)" index="4837" value="1"/>
  <variable name="Y(418,27)" index="27548" value="1"/>
  <variable name="X(1,2,1)" index="55836" value="1"/>
  <variable name="X(1,7,4)" index="56685" value="1"/>
  <variable name="X(1,25,2)" index="57529" value="1"/>
  <variable name="X(1,34,28)" index="58401" value="1"/>
  <variable name="X(2,1,28)" index="59247" value="1"/>
  <variable name="X(2,7,31)" index="60096" value="1"/>
  <variable name="X(2,35,1)" index="60912" value="1"/>
  <variable name="X(3,22,60)" index="61817" value="1"/>
  <variable name="X(3,25,56)" index="62659" value="1"/>
  <variable name="X(3,36,29)" index="63478" value="1"/>
  <variable name="X(4,5,59)" index="64354" value="1"/>
  <variable name="X(4,25,87)" index="65228" value="1"/>
  <variable name="X(4,37,2)" index="65989" value="1"/>
  <variable name="X(5,4,118)" index="66951" value="1"/>
  <variable name="X(5,21,91)" index="67770" value="1"/>
  <variable name="X(5,38,59)" index="68584" value="1"/>
  <variable name="X(6,21,133)" index="69504" value="1"/>
  <variable name="X(6,39,3)" index="70220" value="1"/>
  <variable name="X(7,1,133)" index="71196" value="1"/>
  <variable name="X(7,2,134)" index="72043" value="1"/>
  <variable name="X(7,8,5)" index="72760" value="1"/>
  <variable name="X(7,40,4)" index="73605" value="1"/>
  <variable name="X(8,7,133)" index="74580" value="1"/>
  <variable name="X(8,17,12)" index="75305" value="1"/>
  <variable name="X(8,21,31)" index="76170" value="1"/>
  <variable name="X(8,41,5)" index="76990" value="1"/>
  <variable name="X(9,6,209)" index="78040" value="1"/>
  <variable name="X(9,21,204)" index="78881" value="1"/>
  <variable name="X(9,26,21)" index="79544" value="1"/>
  <variable name="X(9,42,6)" index="80375" value="1"/>
  <variable name="X(10,21,235)" index="81450" value="1"/>
  <variable name="X(10,43,64)" index="82125" value="1"/>
  <variable name="X(11,14,124)" index="83031" value="1"/>
  <variable name="X(11,21,252)" index="84005" value="1"/>
  <variable name="X(11,44,7)" index="84606" value="1"/>
  <variable name="X(12,22,279)" index="85724" value="1"/>
  <variable name="X(12,45,8)" index="86299" value="1"/>
  <variable name="X(13,22,305)" index="87442" value="1"/>
  <variable name="X(13,46,9)" index="87992" value="1"/>
  <variable name="X(14,11,7)" index="88836" value="1"/>
  <variable name="X(14,15,11)" index="89686" value="1"/>
  <variable name="X(14,22,324)" index="90845" value="1"/>
  <variable name="X(14,47,10)" index="91377" value="1"/>
  <variable name="X(15,14,349)" index="92562" value="1"/>
  <variable name="X(15,48,11)" index="93070" value="1"/>
  <variable name="X(16,17,375)" index="94280" value="1"/>
  <variable name="X(16,49,12)" index="94763" value="1"/>
  <variable name="X(17,8,375)" index="95972" value="1"/>
  <variable name="X(17,16,12)" index="96455" value="1"/>
  <variable name="X(17,18,14)" index="97303" value="1"/>
  <variable name="X(17,23,18)" index="98153" value="1"/>
  <variable name="X(17,50,13)" index="98994" value="1"/>
  <variable name="X(18,17,425)" index="100252" value="1"/>
  <variable name="X(18,19,385)" index="101058" value="1"/>
  <variable name="X(18,51,14)" index="101533" value="1"/>
  <variable name="X(19,18,72)" index="102437" value="1"/>
  <variable name="X(19,21,427)" index="103638" value="1"/>
  <variable name="X(19,52,15)" index="104072" value="1"/>
  <variable name="X(20,21,476)" index="105379" value="1"/>
  <variable name="X(20,22,475)" index="106224" value="1"/>
  <variable name="X(20,53,74)" index="106669" value="1"/>
  <variable name="X(21,5,135)" index="107576" value="1"/>
  <variable name="X(21,6,3)" index="108290" value="1"/>
  <variable name="X(21,8,62)" index="109195" value="1"/>
  <variable name="X(21,9,6)" index="109985" value="1"/>
  <variable name="X(21,10,64)" index="110889" value="1"/>
  <variable name="X(21,11,35)" index="111706" value="1"/>
  <variable name="X(21,19,15)" index="112532" value="1"/>
  <variable name="X(21,20,160)" index="113523" value="1"/>
  <variable name="X(21,22,128)" index="114337" value="1"/>
  <variable name="X(21,54,16)" index="115071" value="1"/>
  <variable name="X(22,3,175)" index="116076" value="1"/>
  <variable name="X(22,12,8)" index="116755" value="1"/>
  <variable name="X(22,13,9)" index="117602" value="1"/>
  <variable name="X(22,14,7)" index="118446" value="1"/>
  <variable name="X(22,20,74)" index="119359" value="1"/>
  <variable name="X(22,21,3)" index="120134" value="1"/>
  <variable name="X(22,25,140)" index="121117" value="1"/>
  <variable name="X(22,28,22)" index="121845" value="1"/>
  <variable name="X(22,29,23)" index="122692" value="1"/>
  <variable name="X(22,30,24)" index="123539" value="1"/>
  <variable name="X(22,31,25)" index="124386" value="1"/>
  <variable name="X(22,55,17)" index="125224" value="1"/>
  <variable name="X(23,17,570)" index="126623" value="1"/>
  <variable name="X(23,56,18)" index="126917" value="1"/>
  <variable name="X(24,25,598)" index="128343" value="1"/>
  <variable name="X(24,33,27)" index="128618" value="1"/>
  <variable name="X(24,57,19)" index="129456" value="1"/>
  <variable name="X(25,1,56)" index="130339" value="1"/>
  <variable name="X(25,3,29)" index="131158" value="1"/>
  <variable name="X(25,4,2)" index="131977" value="1"/>
  <variable name="X(25,22,3)" index="132824" value="1"/>
  <variable name="X(25,24,19)" index="133686" value="1"/>
  <variable name="X(25,58,20)" index="134533" value="1"/>
  <variable name="X(26,9,657)" index="136016" value="1"/>
  <variable name="X(26,27,229)" index="136434" value="1"/>
  <variable name="X(26,59,21)" index="137072" value="1"/>
  <variable name="X(27,26,688)" index="138585" value="1"/>
  <variable name="X(27,28,229)" index="138972" value="1"/>
  <variable name="X(27,60,418)" index="140007" value="1"/>
  <variable name="X(28,22,684)" index="141119" value="1"/>
  <variable name="X(28,27,563)" index="141844" value="1"/>
  <variable name="X(28,61,22)" index="142149" value="1"/>
  <variable name="X(29,22,747)" index="143720" value="1"/>
  <variable name="X(29,62,23)" index="143842" value="1"/>
  <variable name="X(30,22,760)" index="145425" value="1"/>
  <variable name="X(30,29,784)" index="146295" value="1"/>
  <variable name="X(30,63,24)" index="146381" value="1"/>
  <variable name="X(31,22,788)" index="147991" value="1"/>
  <variable name="X(31,32,26)" index="148075" value="1"/>
  <variable name="X(31,64,25)" index="148920" value="1"/>
  <variable name="X(32,31,801)" index="150542" value="1"/>
  <variable name="X(32,33,800)" index="151387" value="1"/>
  <variable name="X(32,65,26)" index="151459" value="1"/>
  <variable name="X(33,24,812)" index="153091" value="1"/>
  <variable name="X(33,32,623)" index="153748" value="1"/>
  <variable name="X(33,66,27)" index="153998" value="1"/>
 </variables>
</CPLEXSolution>
